; Options: -in -smt2
(set-option :produce-unsat-assumptions true)

(declare-fun start!2307 () Bool)

(assert start!2307)

(declare-fun b!11998 () Bool)

(declare-fun e!6961 () Bool)

(declare-fun lt!6420 () (_ BitVec 32))

(declare-datatypes ((array!911 0))(
  ( (array!912 (arr!401 (Array (_ BitVec 32) (_ BitVec 32))) (size!401 (_ BitVec 32))) )
))
(declare-fun iq!194 () array!911)

(assert (=> b!11998 (= e!6961 (or (bvslt lt!6420 #b00000000000000000000000000000000) (bvsge lt!6420 (size!401 iq!194))))))

(declare-fun jz!59 () (_ BitVec 32))

(declare-fun i!271 () (_ BitVec 32))

(assert (=> b!11998 (= lt!6420 (bvsub (bvsub jz!59 #b00000000000000000000000000000001) i!271))))

(declare-fun lt!6414 () array!911)

(declare-fun b!11999 () Bool)

(declare-fun lt!6418 () (_ FloatingPoint 11 53))

(declare-datatypes ((Unit!1367 0))(
  ( (Unit!1368) )
))
(declare-datatypes ((tuple4!284 0))(
  ( (tuple4!285 (_1!321 Unit!1367) (_2!321 array!911) (_3!258 (_ BitVec 32)) (_4!142 (_ FloatingPoint 11 53))) )
))
(declare-fun e!6959 () tuple4!284)

(declare-datatypes ((array!913 0))(
  ( (array!914 (arr!402 (Array (_ BitVec 32) (_ FloatingPoint 11 53))) (size!402 (_ BitVec 32))) )
))
(declare-fun q!93 () array!913)

(declare-fun computeModuloWhile!0 ((_ BitVec 32) array!913 array!911 (_ BitVec 32) (_ FloatingPoint 11 53)) tuple4!284)

(assert (=> b!11999 (= e!6959 (computeModuloWhile!0 jz!59 q!93 lt!6414 jz!59 lt!6418))))

(declare-fun b!12000 () Bool)

(declare-fun res!9344 () Bool)

(assert (=> b!12000 (=> (not res!9344) (not e!6961))))

(declare-fun QInt!0 ((_ BitVec 32)) Bool)

(assert (=> b!12000 (= res!9344 (QInt!0 (select (arr!401 iq!194) (bvsub (bvsub jz!59 #b00000000000000000000000000000001) i!271))))))

(declare-fun b!12001 () Bool)

(declare-fun res!9343 () Bool)

(assert (=> b!12001 (=> (not res!9343) (not e!6961))))

(assert (=> b!12001 (= res!9343 (bvslt i!271 jz!59))))

(declare-fun b!12002 () Bool)

(declare-fun Unit!1369 () Unit!1367)

(assert (=> b!12002 (= e!6959 (tuple4!285 Unit!1369 lt!6414 jz!59 lt!6418))))

(declare-fun b!12003 () Bool)

(declare-fun res!9348 () Bool)

(assert (=> b!12003 (=> (not res!9348) (not e!6961))))

(declare-fun iqInv!0 (array!911) Bool)

(assert (=> b!12003 (= res!9348 (iqInv!0 iq!194))))

(declare-fun b!11997 () Bool)

(declare-datatypes ((tuple3!232 0))(
  ( (tuple3!233 (_1!322 Unit!1367) (_2!322 array!911) (_3!259 (_ BitVec 32))) )
))
(declare-fun e!6957 () tuple3!232)

(declare-fun lt!6415 () tuple4!284)

(declare-fun lt!6416 () (_ BitVec 32))

(declare-fun Unit!1370 () Unit!1367)

(assert (=> b!11997 (= e!6957 (tuple3!233 Unit!1370 (_2!321 lt!6415) lt!6416))))

(declare-fun res!9349 () Bool)

(declare-fun e!6956 () Bool)

(assert (=> start!2307 (=> (not res!9349) (not e!6956))))

(assert (=> start!2307 (= res!9349 (and (bvsle #b00000000000000000000000000000010 jz!59) (bvslt jz!59 #b00000000000000000000000000010011)))))

(assert (=> start!2307 e!6956))

(assert (=> start!2307 true))

(declare-fun array_inv!350 (array!911) Bool)

(assert (=> start!2307 (array_inv!350 iq!194)))

(declare-fun qq!48 () array!913)

(declare-fun array_inv!351 (array!913) Bool)

(assert (=> start!2307 (array_inv!351 qq!48)))

(assert (=> start!2307 (array_inv!351 q!93)))

(declare-fun b!12004 () Bool)

(declare-fun lt!6417 () (_ BitVec 32))

(declare-datatypes ((tuple4!286 0))(
  ( (tuple4!287 (_1!323 Unit!1367) (_2!323 (_ BitVec 32)) (_3!260 array!911) (_4!143 (_ BitVec 32))) )
))
(declare-fun e!6955 () tuple4!286)

(declare-fun computeModuloWhile!3 ((_ BitVec 32) array!913 (_ BitVec 32) array!911 (_ BitVec 32)) tuple4!286)

(assert (=> b!12004 (= e!6955 (computeModuloWhile!3 jz!59 q!93 lt!6417 (_2!321 lt!6415) lt!6416))))

(declare-fun b!12005 () Bool)

(declare-fun Unit!1371 () Unit!1367)

(assert (=> b!12005 (= e!6955 (tuple4!287 Unit!1371 lt!6417 (_2!321 lt!6415) lt!6416))))

(declare-fun b!12006 () Bool)

(declare-fun res!9342 () Bool)

(assert (=> b!12006 (=> (not res!9342) (not e!6961))))

(declare-fun qqInv!0 (array!913) Bool)

(assert (=> b!12006 (= res!9342 (qqInv!0 qq!48))))

(declare-fun b!12007 () Bool)

(declare-fun e!6960 () Bool)

(assert (=> b!12007 (= e!6960 e!6961)))

(declare-fun res!9345 () Bool)

(assert (=> b!12007 (=> (not res!9345) (not e!6961))))

(declare-fun lt!6423 () Bool)

(declare-fun lt!6419 () tuple3!232)

(assert (=> b!12007 (= res!9345 (and (bvsle #b00000000000000000000000000000000 (select (arr!401 (_2!322 lt!6419)) (bvsub jz!59 #b00000000000000000000000000000001))) (bvsle (select (arr!401 (_2!322 lt!6419)) (bvsub jz!59 #b00000000000000000000000000000001)) #b00000000100000000000000000000000) (or (not lt!6423) (not (= (_3!259 lt!6419) #b00000000000000000000000000000000)) (not (= (select (arr!401 (_2!322 lt!6419)) (bvsub jz!59 #b00000000000000000000000000000001)) #b00000000100000000000000000000000))) (bvsle (select (arr!401 (_2!322 lt!6419)) (bvsub jz!59 #b00000000000000000000000000000001)) #b00000000011111111111111111111111) (bvsle #b00000000000000000000000000000000 i!271) (bvsle i!271 jz!59)))))

(assert (=> b!12007 (= lt!6419 e!6957)))

(declare-fun c!1541 () Bool)

(assert (=> b!12007 (= c!1541 lt!6423)))

(assert (=> b!12007 (= lt!6416 #b00000000000000000000000000000000)))

(assert (=> b!12007 (= lt!6423 (bvsge (select (arr!401 (_2!321 lt!6415)) (bvsub jz!59 #b00000000000000000000000000000001)) #b00000000100000000000000000000000))))

(declare-fun b!12008 () Bool)

(declare-fun res!9347 () Bool)

(assert (=> b!12008 (=> (not res!9347) (not e!6961))))

(assert (=> b!12008 (= res!9347 (and (bvsle (select (arr!401 iq!194) (bvsub jz!59 #b00000000000000000000000000000001)) #b00000000011111111111111111111111) (= (size!402 qq!48) #b00000000000000000000000000010100)))))

(declare-fun lt!6422 () tuple4!286)

(declare-fun lt!6421 () (_ BitVec 32))

(declare-fun b!12009 () Bool)

(declare-fun Unit!1372 () Unit!1367)

(assert (=> b!12009 (= e!6957 (tuple3!233 Unit!1372 (array!912 (store (arr!401 (_3!260 lt!6422)) (bvsub jz!59 #b00000000000000000000000000000001) (ite (= (_4!143 lt!6422) #b00000000000000000000000000000000) (bvsub #b00000001000000000000000000000000 lt!6421) (bvsub #b00000000111111111111111111111111 lt!6421))) (size!401 (_3!260 lt!6422))) (_4!143 lt!6422)))))

(assert (=> b!12009 (= lt!6417 #b00000000000000000000000000000000)))

(declare-fun c!1539 () Bool)

(assert (=> b!12009 (= c!1539 (bvslt lt!6417 (bvsub jz!59 #b00000000000000000000000000000001)))))

(assert (=> b!12009 (= lt!6422 e!6955)))

(assert (=> b!12009 (= lt!6421 (select (arr!401 (_3!260 lt!6422)) (bvsub jz!59 #b00000000000000000000000000000001)))))

(declare-fun b!12010 () Bool)

(declare-fun res!9346 () Bool)

(assert (=> b!12010 (=> (not res!9346) (not e!6956))))

(declare-fun qInv!0 (array!913) Bool)

(assert (=> b!12010 (= res!9346 (qInv!0 q!93))))

(declare-fun b!12011 () Bool)

(assert (=> b!12011 (= e!6956 e!6960)))

(declare-fun res!9341 () Bool)

(assert (=> b!12011 (=> (not res!9341) (not e!6960))))

(declare-fun lt!6413 () (_ FloatingPoint 11 53))

(assert (=> b!12011 (= res!9341 (and (fp.leq (fp #b0 #b00000000000 #b0000000000000000000000000000000000000000000000000000) lt!6413) (fp.lt lt!6413 (fp #b0 #b10000000010 #b0000000000000000000000000000000000000000000000000000))))))

(assert (=> b!12011 (= lt!6413 (fp.sub roundNearestTiesToEven (_4!142 lt!6415) (fp.mul roundNearestTiesToEven (fp #b0 #b10000000010 #b0000000000000000000000000000000000000000000000000000) ((_ to_fp 11 53) roundNearestTiesToEven (ite (fp.isNaN (fp.mul roundNearestTiesToEven (_4!142 lt!6415) (fp #b0 #b01111111100 #b0000000000000000000000000000000000000000000000000000))) #b0000000000000000000000000000000000000000000000000000000000000000 (ite (fp.gt (fp.mul roundNearestTiesToEven (_4!142 lt!6415) (fp #b0 #b01111111100 #b0000000000000000000000000000000000000000000000000000)) ((_ to_fp 11 53) roundTowardZero #b0111111111111111111111111111111111111111111111111111111111111111)) #b0111111111111111111111111111111111111111111111111111111111111111 (ite (fp.lt (fp.mul roundNearestTiesToEven (_4!142 lt!6415) (fp #b0 #b01111111100 #b0000000000000000000000000000000000000000000000000000)) ((_ to_fp 11 53) roundTowardZero #b1000000000000000000000000000000000000000000000000000000000000000)) #b1000000000000000000000000000000000000000000000000000000000000000 ((_ fp.to_sbv 64) roundTowardZero (fp.mul roundNearestTiesToEven (_4!142 lt!6415) (fp #b0 #b01111111100 #b0000000000000000000000000000000000000000000000000000))))))))))))

(assert (=> b!12011 (= lt!6415 e!6959)))

(declare-fun c!1540 () Bool)

(assert (=> b!12011 (= c!1540 (bvsgt jz!59 #b00000000000000000000000000000000))))

(assert (=> b!12011 (= lt!6418 (select (arr!402 q!93) jz!59))))

(assert (=> b!12011 (= lt!6414 (array!912 ((as const (Array (_ BitVec 32) (_ BitVec 32))) #b00000000000000000000000000000000) #b00000000000000000000000000010100))))

(assert (= (and start!2307 res!9349) b!12010))

(assert (= (and b!12010 res!9346) b!12011))

(assert (= (and b!12011 c!1540) b!11999))

(assert (= (and b!12011 (not c!1540)) b!12002))

(assert (= (and b!12011 res!9341) b!12007))

(assert (= (and b!12007 c!1541) b!12009))

(assert (= (and b!12007 (not c!1541)) b!11997))

(assert (= (and b!12009 c!1539) b!12004))

(assert (= (and b!12009 (not c!1539)) b!12005))

(assert (= (and b!12007 res!9345) b!12003))

(assert (= (and b!12003 res!9348) b!12008))

(assert (= (and b!12008 res!9347) b!12006))

(assert (= (and b!12006 res!9342) b!12001))

(assert (= (and b!12001 res!9343) b!12000))

(assert (= (and b!12000 res!9344) b!11998))

(declare-fun m!16517 () Bool)

(assert (=> b!12007 m!16517))

(declare-fun m!16519 () Bool)

(assert (=> b!12007 m!16519))

(declare-fun m!16521 () Bool)

(assert (=> b!12008 m!16521))

(declare-fun m!16523 () Bool)

(assert (=> b!12011 m!16523))

(declare-fun m!16525 () Bool)

(assert (=> b!11999 m!16525))

(declare-fun m!16527 () Bool)

(assert (=> b!12009 m!16527))

(declare-fun m!16529 () Bool)

(assert (=> b!12009 m!16529))

(declare-fun m!16531 () Bool)

(assert (=> b!12010 m!16531))

(declare-fun m!16533 () Bool)

(assert (=> b!12004 m!16533))

(declare-fun m!16535 () Bool)

(assert (=> b!12006 m!16535))

(declare-fun m!16537 () Bool)

(assert (=> b!12003 m!16537))

(declare-fun m!16539 () Bool)

(assert (=> b!12000 m!16539))

(assert (=> b!12000 m!16539))

(declare-fun m!16541 () Bool)

(assert (=> b!12000 m!16541))

(declare-fun m!16543 () Bool)

(assert (=> start!2307 m!16543))

(declare-fun m!16545 () Bool)

(assert (=> start!2307 m!16545))

(declare-fun m!16547 () Bool)

(assert (=> start!2307 m!16547))

(check-sat (not b!12006) (not b!11999) (not b!12010) (not start!2307) (not b!12000) (not b!12004) (not b!12003))
(check-sat)
(get-model)

(declare-fun d!4423 () Bool)

(declare-fun res!9352 () Bool)

(declare-fun e!6966 () Bool)

(assert (=> d!4423 (=> (not res!9352) (not e!6966))))

(assert (=> d!4423 (= res!9352 (= (size!401 iq!194) #b00000000000000000000000000010100))))

(assert (=> d!4423 (= (iqInv!0 iq!194) e!6966)))

(declare-fun b!12014 () Bool)

(declare-fun lambda!523 () Int)

(declare-fun all20Int!0 (array!911 Int) Bool)

(assert (=> b!12014 (= e!6966 (all20Int!0 iq!194 lambda!523))))

(assert (= (and d!4423 res!9352) b!12014))

(declare-fun m!16549 () Bool)

(assert (=> b!12014 m!16549))

(assert (=> b!12003 d!4423))

(declare-fun d!4425 () Bool)

(assert (=> d!4425 (= (array_inv!350 iq!194) (bvsge (size!401 iq!194) #b00000000000000000000000000000000))))

(assert (=> start!2307 d!4425))

(declare-fun d!4427 () Bool)

(assert (=> d!4427 (= (array_inv!351 qq!48) (bvsge (size!402 qq!48) #b00000000000000000000000000000000))))

(assert (=> start!2307 d!4427))

(declare-fun d!4429 () Bool)

(assert (=> d!4429 (= (array_inv!351 q!93) (bvsge (size!402 q!93) #b00000000000000000000000000000000))))

(assert (=> start!2307 d!4429))

(declare-fun b!12027 () Bool)

(declare-fun res!9364 () Bool)

(declare-fun e!6975 () Bool)

(assert (=> b!12027 (=> (not res!9364) (not e!6975))))

(assert (=> b!12027 (= res!9364 (iqInv!0 lt!6414))))

(declare-fun d!4431 () Bool)

(declare-fun e!6973 () Bool)

(assert (=> d!4431 e!6973))

(declare-fun res!9363 () Bool)

(assert (=> d!4431 (=> (not res!9363) (not e!6973))))

(declare-fun lt!6436 () tuple4!284)

(assert (=> d!4431 (= res!9363 (and true true (bvsle #b00000000000000000000000000000000 (_3!258 lt!6436)) (bvsle (_3!258 lt!6436) jz!59) (fp.leq (fp #b0 #b00000000000 #b0000000000000000000000000000000000000000000000000000) (_4!142 lt!6436)) (fp.leq (_4!142 lt!6436) (fp #b0 #b10000110001 #b0100000000000000000000010011111111111111111111111100))))))

(declare-fun e!6974 () tuple4!284)

(assert (=> d!4431 (= lt!6436 e!6974)))

(declare-fun c!1544 () Bool)

(declare-fun lt!6438 () (_ BitVec 32))

(assert (=> d!4431 (= c!1544 (bvsgt lt!6438 #b00000000000000000000000000000000))))

(assert (=> d!4431 (= lt!6438 (bvsub jz!59 #b00000000000000000000000000000001))))

(declare-fun lt!6434 () (_ FloatingPoint 11 53))

(declare-fun lt!6435 () (_ FloatingPoint 11 53))

(assert (=> d!4431 (= lt!6434 (fp.add roundNearestTiesToEven (select (arr!402 q!93) (bvsub jz!59 #b00000000000000000000000000000001)) lt!6435))))

(declare-fun lt!6437 () array!911)

(assert (=> d!4431 (= lt!6437 (array!912 (store (arr!401 lt!6414) (bvsub jz!59 jz!59) (ite (fp.isNaN (fp.sub roundNearestTiesToEven lt!6418 (fp.mul roundNearestTiesToEven (fp #b0 #b10000010111 #b0000000000000000000000000000000000000000000000000000) lt!6435))) #b00000000000000000000000000000000 (ite (fp.gt (fp.sub roundNearestTiesToEven lt!6418 (fp.mul roundNearestTiesToEven (fp #b0 #b10000010111 #b0000000000000000000000000000000000000000000000000000) lt!6435)) ((_ to_fp 11 53) roundTowardZero #b01111111111111111111111111111111)) #b01111111111111111111111111111111 (ite (fp.lt (fp.sub roundNearestTiesToEven lt!6418 (fp.mul roundNearestTiesToEven (fp #b0 #b10000010111 #b0000000000000000000000000000000000000000000000000000) lt!6435)) ((_ to_fp 11 53) roundTowardZero #b10000000000000000000000000000000)) #b10000000000000000000000000000000 ((_ fp.to_sbv 32) roundTowardZero (fp.sub roundNearestTiesToEven lt!6418 (fp.mul roundNearestTiesToEven (fp #b0 #b10000010111 #b0000000000000000000000000000000000000000000000000000) lt!6435))))))) (size!401 lt!6414)))))

(assert (=> d!4431 (= lt!6435 ((_ to_fp 11 53) roundNearestTiesToEven (ite (fp.isNaN (fp.mul roundNearestTiesToEven (fp #b0 #b01111100111 #b0000000000000000000000000000000000000000000000000000) lt!6418)) #b00000000000000000000000000000000 (ite (fp.gt (fp.mul roundNearestTiesToEven (fp #b0 #b01111100111 #b0000000000000000000000000000000000000000000000000000) lt!6418) ((_ to_fp 11 53) roundTowardZero #b01111111111111111111111111111111)) #b01111111111111111111111111111111 (ite (fp.lt (fp.mul roundNearestTiesToEven (fp #b0 #b01111100111 #b0000000000000000000000000000000000000000000000000000) lt!6418) ((_ to_fp 11 53) roundTowardZero #b10000000000000000000000000000000)) #b10000000000000000000000000000000 ((_ fp.to_sbv 32) roundTowardZero (fp.mul roundNearestTiesToEven (fp #b0 #b01111100111 #b0000000000000000000000000000000000000000000000000000) lt!6418)))))))))

(assert (=> d!4431 e!6975))

(declare-fun res!9361 () Bool)

(assert (=> d!4431 (=> (not res!9361) (not e!6975))))

(assert (=> d!4431 (= res!9361 (and (bvsle #b00000000000000000000000000000000 jz!59) (bvsle jz!59 jz!59) (fp.leq (fp #b0 #b00000000000 #b0000000000000000000000000000000000000000000000000000) lt!6418) (fp.leq lt!6418 (fp #b0 #b10000110001 #b0100000000000000000000010011111111111111111111111100))))))

(assert (=> d!4431 (= (computeModuloWhile!0 jz!59 q!93 lt!6414 jz!59 lt!6418) lt!6436)))

(declare-fun b!12028 () Bool)

(declare-fun Unit!1373 () Unit!1367)

(assert (=> b!12028 (= e!6974 (tuple4!285 Unit!1373 lt!6437 lt!6438 lt!6434))))

(declare-fun b!12029 () Bool)

(declare-fun res!9362 () Bool)

(assert (=> b!12029 (=> (not res!9362) (not e!6973))))

(assert (=> b!12029 (= res!9362 (iqInv!0 (_2!321 lt!6436)))))

(declare-fun b!12030 () Bool)

(assert (=> b!12030 (= e!6974 (computeModuloWhile!0 jz!59 q!93 lt!6437 lt!6438 lt!6434))))

(declare-fun b!12031 () Bool)

(assert (=> b!12031 (= e!6975 (bvsgt jz!59 #b00000000000000000000000000000000))))

(declare-fun b!12032 () Bool)

(assert (=> b!12032 (= e!6973 (bvsle (_3!258 lt!6436) #b00000000000000000000000000000000))))

(assert (= (and d!4431 res!9361) b!12027))

(assert (= (and b!12027 res!9364) b!12031))

(assert (= (and d!4431 c!1544) b!12030))

(assert (= (and d!4431 (not c!1544)) b!12028))

(assert (= (and d!4431 res!9363) b!12029))

(assert (= (and b!12029 res!9362) b!12032))

(declare-fun m!16551 () Bool)

(assert (=> b!12027 m!16551))

(declare-fun m!16553 () Bool)

(assert (=> d!4431 m!16553))

(declare-fun m!16555 () Bool)

(assert (=> d!4431 m!16555))

(declare-fun m!16557 () Bool)

(assert (=> b!12029 m!16557))

(declare-fun m!16559 () Bool)

(assert (=> b!12030 m!16559))

(assert (=> b!11999 d!4431))

(declare-fun d!4433 () Bool)

(declare-fun res!9367 () Bool)

(declare-fun e!6978 () Bool)

(assert (=> d!4433 (=> (not res!9367) (not e!6978))))

(assert (=> d!4433 (= res!9367 (= (size!402 q!93) #b00000000000000000000000000010100))))

(assert (=> d!4433 (= (qInv!0 q!93) e!6978)))

(declare-fun b!12035 () Bool)

(declare-fun lambda!526 () Int)

(declare-fun all20!0 (array!913 Int) Bool)

(assert (=> b!12035 (= e!6978 (all20!0 q!93 lambda!526))))

(assert (= (and d!4433 res!9367) b!12035))

(declare-fun m!16561 () Bool)

(assert (=> b!12035 m!16561))

(assert (=> b!12010 d!4433))

(declare-fun lt!6463 () (_ FloatingPoint 11 53))

(declare-fun lt!6459 () array!911)

(declare-fun e!6989 () tuple4!284)

(declare-fun b!12056 () Bool)

(assert (=> b!12056 (= e!6989 (computeModuloWhile!0 jz!59 q!93 lt!6459 jz!59 lt!6463))))

(declare-fun e!6987 () Bool)

(declare-fun b!12057 () Bool)

(assert (=> b!12057 (= e!6987 (and (bvsge (select (arr!401 (_2!321 lt!6415)) (bvsub jz!59 #b00000000000000000000000000000001)) #b00000000100000000000000000000000) (or (= lt!6416 #b00000000000000000000000000000000) (= lt!6416 #b00000000000000000000000000000001)) (bvslt lt!6417 (bvsub jz!59 #b00000000000000000000000000000001))))))

(declare-fun b!12058 () Bool)

(declare-fun res!9385 () Bool)

(assert (=> b!12058 (=> (not res!9385) (not e!6987))))

(assert (=> b!12058 (= res!9385 (iqInv!0 (_2!321 lt!6415)))))

(declare-fun d!4435 () Bool)

(declare-fun e!6988 () Bool)

(assert (=> d!4435 e!6988))

(declare-fun res!9384 () Bool)

(assert (=> d!4435 (=> (not res!9384) (not e!6988))))

(declare-fun lt!6458 () tuple4!286)

(assert (=> d!4435 (= res!9384 (and (or (bvsgt #b00000000000000000000000000000000 (_2!323 lt!6458)) (= (bvand jz!59 #b10000000000000000000000000000000) #b00000000000000000000000000000000) (= (bvand jz!59 #b10000000000000000000000000000000) (bvand (bvsub jz!59 #b00000000000000000000000000000001) #b10000000000000000000000000000000))) (bvsle #b00000000000000000000000000000000 (_2!323 lt!6458)) (bvsle (_2!323 lt!6458) (bvsub jz!59 #b00000000000000000000000000000001))))))

(declare-fun e!6990 () tuple4!286)

(assert (=> d!4435 (= lt!6458 e!6990)))

(declare-fun c!1550 () Bool)

(declare-fun lt!6460 () (_ BitVec 32))

(assert (=> d!4435 (= c!1550 (bvslt lt!6460 (bvsub jz!59 #b00000000000000000000000000000001)))))

(assert (=> d!4435 (= lt!6460 (bvadd lt!6417 #b00000000000000000000000000000001))))

(declare-fun lt!6461 () (_ BitVec 32))

(declare-fun lt!6462 () (_ BitVec 32))

(assert (=> d!4435 (= lt!6461 (ite (and (= lt!6416 #b00000000000000000000000000000000) (not (= lt!6462 #b00000000000000000000000000000000))) #b00000000000000000000000000000001 lt!6416))))

(declare-fun lt!6457 () array!911)

(assert (=> d!4435 (= lt!6457 (array!912 (store (arr!401 (_2!321 lt!6415)) lt!6417 (ite (= lt!6416 #b00000000000000000000000000000000) (ite (not (= lt!6462 #b00000000000000000000000000000000)) (bvsub #b00000001000000000000000000000000 lt!6462) #b00000000000000000000000000000000) (bvsub #b00000000111111111111111111111111 lt!6462))) (size!401 (_2!321 lt!6415))))))

(assert (=> d!4435 (= lt!6462 (select (arr!401 (_2!321 lt!6415)) lt!6417))))

(assert (=> d!4435 e!6987))

(declare-fun res!9381 () Bool)

(assert (=> d!4435 (=> (not res!9381) (not e!6987))))

(assert (=> d!4435 (= res!9381 (and (bvsle #b00000000000000000000000000000000 lt!6417) (bvsle lt!6417 (bvsub jz!59 #b00000000000000000000000000000001))))))

(declare-fun lt!6465 () tuple4!284)

(assert (=> d!4435 (= lt!6465 e!6989)))

(declare-fun c!1549 () Bool)

(assert (=> d!4435 (= c!1549 (bvsgt jz!59 #b00000000000000000000000000000000))))

(assert (=> d!4435 (= lt!6463 (select (arr!402 q!93) jz!59))))

(assert (=> d!4435 (= lt!6459 (array!912 ((as const (Array (_ BitVec 32) (_ BitVec 32))) #b00000000000000000000000000000000) #b00000000000000000000000000010100))))

(assert (=> d!4435 (= (computeModuloWhile!3 jz!59 q!93 lt!6417 (_2!321 lt!6415) lt!6416) lt!6458)))

(declare-fun b!12059 () Bool)

(declare-fun Unit!1374 () Unit!1367)

(assert (=> b!12059 (= e!6989 (tuple4!285 Unit!1374 lt!6459 jz!59 lt!6463))))

(declare-fun b!12060 () Bool)

(assert (=> b!12060 (= e!6990 (computeModuloWhile!3 jz!59 q!93 lt!6460 lt!6457 lt!6461))))

(declare-fun b!12061 () Bool)

(declare-fun Unit!1375 () Unit!1367)

(assert (=> b!12061 (= e!6990 (tuple4!287 Unit!1375 lt!6460 lt!6457 lt!6461))))

(declare-fun b!12062 () Bool)

(declare-fun res!9382 () Bool)

(assert (=> b!12062 (=> (not res!9382) (not e!6988))))

(assert (=> b!12062 (= res!9382 (or (= (_4!143 lt!6458) #b00000000000000000000000000000000) (= (_4!143 lt!6458) #b00000000000000000000000000000001)))))

(declare-fun b!12063 () Bool)

(declare-fun res!9380 () Bool)

(assert (=> b!12063 (=> (not res!9380) (not e!6988))))

(assert (=> b!12063 (= res!9380 (iqInv!0 (_3!260 lt!6458)))))

(declare-fun b!12064 () Bool)

(declare-fun res!9383 () Bool)

(assert (=> b!12064 (=> (not res!9383) (not e!6988))))

(declare-fun lt!6464 () (_ BitVec 32))

(assert (=> b!12064 (= res!9383 (bvsge (select (arr!401 (_3!260 lt!6458)) lt!6464) #b00000000100000000000000000000000))))

(assert (=> b!12064 (and (bvsge lt!6464 #b00000000000000000000000000000000) (bvslt lt!6464 (size!401 (_3!260 lt!6458))))))

(assert (=> b!12064 (= lt!6464 (bvsub jz!59 #b00000000000000000000000000000001))))

(assert (=> b!12064 (or (= (bvand jz!59 #b10000000000000000000000000000000) #b00000000000000000000000000000000) (= (bvand jz!59 #b10000000000000000000000000000000) (bvand (bvsub jz!59 #b00000000000000000000000000000001) #b10000000000000000000000000000000)))))

(declare-fun b!12065 () Bool)

(assert (=> b!12065 (= e!6988 (bvsge (_2!323 lt!6458) (bvsub jz!59 #b00000000000000000000000000000001)))))

(assert (=> b!12065 (or (= (bvand jz!59 #b10000000000000000000000000000000) #b00000000000000000000000000000000) (= (bvand jz!59 #b10000000000000000000000000000000) (bvand (bvsub jz!59 #b00000000000000000000000000000001) #b10000000000000000000000000000000)))))

(assert (= (and d!4435 c!1549) b!12056))

(assert (= (and d!4435 (not c!1549)) b!12059))

(assert (= (and d!4435 res!9381) b!12058))

(assert (= (and b!12058 res!9385) b!12057))

(assert (= (and d!4435 c!1550) b!12060))

(assert (= (and d!4435 (not c!1550)) b!12061))

(assert (= (and d!4435 res!9384) b!12063))

(assert (= (and b!12063 res!9380) b!12064))

(assert (= (and b!12064 res!9383) b!12062))

(assert (= (and b!12062 res!9382) b!12065))

(declare-fun m!16563 () Bool)

(assert (=> b!12060 m!16563))

(assert (=> b!12057 m!16519))

(declare-fun m!16565 () Bool)

(assert (=> b!12064 m!16565))

(declare-fun m!16567 () Bool)

(assert (=> b!12058 m!16567))

(declare-fun m!16569 () Bool)

(assert (=> d!4435 m!16569))

(declare-fun m!16571 () Bool)

(assert (=> d!4435 m!16571))

(assert (=> d!4435 m!16523))

(declare-fun m!16573 () Bool)

(assert (=> b!12056 m!16573))

(declare-fun m!16575 () Bool)

(assert (=> b!12063 m!16575))

(assert (=> b!12004 d!4435))

(declare-fun d!4437 () Bool)

(assert (=> d!4437 (= (qqInv!0 qq!48) (and (= (size!402 qq!48) #b00000000000000000000000000010100) (fp.leq (fp #b0 #b00000000000 #b0000000000000000000000000000000000000000000000000000) (select (arr!402 qq!48) #b00000000000000000000000000000000)) (fp.leq (select (arr!402 qq!48) #b00000000000000000000000000000000) (fp #b0 #b01111111101 #b1111111111111111111111000000000000000000000000000000)) (fp.leq (fp #b0 #b00000000000 #b0000000000000000000000000000000000000000000000000000) (select (arr!402 qq!48) #b00000000000000000000000000000001)) (fp.leq (select (arr!402 qq!48) #b00000000000000000000000000000001) (fp #b0 #b01111100110 #b1111111111111111111111100000000000000000000000000000)) (fp.leq (fp #b0 #b00000000000 #b0000000000000000000000000000000000000000000000000000) (select (arr!402 qq!48) #b00000000000000000000000000000010)) (fp.leq (select (arr!402 qq!48) #b00000000000000000000000000000010) (fp #b0 #b01111001110 #b1111111111111111111111100000000000000000000000000000)) (fp.leq (fp #b0 #b00000000000 #b0000000000000000000000000000000000000000000000000000) (select (arr!402 qq!48) #b00000000000000000000000000000011)) (fp.leq (select (arr!402 qq!48) #b00000000000000000000000000000011) (fp #b0 #b01110110110 #b1111111111111111111111100000000000000000000000000000)) (fp.leq (fp #b0 #b00000000000 #b0000000000000000000000000000000000000000000000000000) (select (arr!402 qq!48) #b00000000000000000000000000000100)) (fp.leq (select (arr!402 qq!48) #b00000000000000000000000000000100) (fp #b0 #b01110011110 #b1111111111111111111111100000000000000000000000000000)) (fp.leq (fp #b0 #b00000000000 #b0000000000000000000000000000000000000000000000000000) (select (arr!402 qq!48) #b00000000000000000000000000000101)) (fp.leq (select (arr!402 qq!48) #b00000000000000000000000000000101) (fp #b0 #b01110000110 #b1111111111111111111111100000000000000000000000000000)) (fp.leq (fp #b0 #b00000000000 #b0000000000000000000000000000000000000000000000000000) (select (arr!402 qq!48) #b00000000000000000000000000000110)) (fp.leq (select (arr!402 qq!48) #b00000000000000000000000000000110) (fp #b0 #b01101101110 #b1111111111111111111111100000000000000000000000000000)) (fp.leq (fp #b0 #b00000000000 #b0000000000000000000000000000000000000000000000000000) (select (arr!402 qq!48) #b00000000000000000000000000000111)) (fp.leq (select (arr!402 qq!48) #b00000000000000000000000000000111) (fp #b0 #b01101010110 #b1111111111111111111111100000000000000000000000000000)) (fp.leq (fp #b0 #b00000000000 #b0000000000000000000000000000000000000000000000000000) (select (arr!402 qq!48) #b00000000000000000000000000001000)) (fp.leq (select (arr!402 qq!48) #b00000000000000000000000000001000) (fp #b0 #b01100111110 #b1111111111111111111111100000000000000000000000000000)) (fp.leq (fp #b0 #b00000000000 #b0000000000000000000000000000000000000000000000000000) (select (arr!402 qq!48) #b00000000000000000000000000001001)) (fp.leq (select (arr!402 qq!48) #b00000000000000000000000000001001) (fp #b0 #b01100100110 #b1111111111111111111111100000000000000000000000000000)) (fp.leq (fp #b0 #b00000000000 #b0000000000000000000000000000000000000000000000000000) (select (arr!402 qq!48) #b00000000000000000000000000001010)) (fp.leq (select (arr!402 qq!48) #b00000000000000000000000000001010) (fp #b0 #b01100001110 #b1111111111111111111111100000000000000000000000000000)) (fp.leq (fp #b0 #b00000000000 #b0000000000000000000000000000000000000000000000000000) (select (arr!402 qq!48) #b00000000000000000000000000001011)) (fp.leq (select (arr!402 qq!48) #b00000000000000000000000000001011) (fp #b0 #b01011110110 #b1111111111111111111111100000000000000000000000000000)) (fp.leq (fp #b0 #b00000000000 #b0000000000000000000000000000000000000000000000000000) (select (arr!402 qq!48) #b00000000000000000000000000001100)) (fp.leq (select (arr!402 qq!48) #b00000000000000000000000000001100) (fp #b0 #b01011011110 #b1111111111111111111111100000000000000000000000000000)) (fp.leq (fp #b0 #b00000000000 #b0000000000000000000000000000000000000000000000000000) (select (arr!402 qq!48) #b00000000000000000000000000001101)) (fp.leq (select (arr!402 qq!48) #b00000000000000000000000000001101) (fp #b0 #b01011000110 #b1111111111111111111111100000000000000000000000000000)) (fp.leq (fp #b0 #b00000000000 #b0000000000000000000000000000000000000000000000000000) (select (arr!402 qq!48) #b00000000000000000000000000001110)) (fp.leq (select (arr!402 qq!48) #b00000000000000000000000000001110) (fp #b0 #b01010101110 #b1111111111111111111111100000000000000000000000000000)) (fp.leq (fp #b0 #b00000000000 #b0000000000000000000000000000000000000000000000000000) (select (arr!402 qq!48) #b00000000000000000000000000001111)) (fp.leq (select (arr!402 qq!48) #b00000000000000000000000000001111) (fp #b0 #b01010010110 #b1111111111111111111111100000000000000000000000000000)) (fp.leq (fp #b0 #b00000000000 #b0000000000000000000000000000000000000000000000000000) (select (arr!402 qq!48) #b00000000000000000000000000010000)) (fp.leq (select (arr!402 qq!48) #b00000000000000000000000000010000) (fp #b0 #b01001111110 #b1111111111111111111111100000000000000000000000000000)) (fp.leq (fp #b0 #b00000000000 #b0000000000000000000000000000000000000000000000000000) (select (arr!402 qq!48) #b00000000000000000000000000010001)) (fp.leq (select (arr!402 qq!48) #b00000000000000000000000000010001) (fp #b0 #b01001100110 #b1111111111111111111111100000000000000000000000000000)) (fp.leq (fp #b0 #b00000000000 #b0000000000000000000000000000000000000000000000000000) (select (arr!402 qq!48) #b00000000000000000000000000010010)) (fp.leq (select (arr!402 qq!48) #b00000000000000000000000000010010) (fp #b0 #b01001001110 #b1111111111111111111111100000000000000000000000000000)) (fp.leq (fp #b0 #b00000000000 #b0000000000000000000000000000000000000000000000000000) (select (arr!402 qq!48) #b00000000000000000000000000010011)) (fp.leq (select (arr!402 qq!48) #b00000000000000000000000000010011) (fp #b0 #b01000110110 #b1111111111111111111111100000000000000000000000000000))))))

(declare-fun bs!1832 () Bool)

(assert (= bs!1832 d!4437))

(declare-fun m!16577 () Bool)

(assert (=> bs!1832 m!16577))

(declare-fun m!16579 () Bool)

(assert (=> bs!1832 m!16579))

(declare-fun m!16581 () Bool)

(assert (=> bs!1832 m!16581))

(declare-fun m!16583 () Bool)

(assert (=> bs!1832 m!16583))

(declare-fun m!16585 () Bool)

(assert (=> bs!1832 m!16585))

(declare-fun m!16587 () Bool)

(assert (=> bs!1832 m!16587))

(declare-fun m!16589 () Bool)

(assert (=> bs!1832 m!16589))

(declare-fun m!16591 () Bool)

(assert (=> bs!1832 m!16591))

(declare-fun m!16593 () Bool)

(assert (=> bs!1832 m!16593))

(declare-fun m!16595 () Bool)

(assert (=> bs!1832 m!16595))

(declare-fun m!16597 () Bool)

(assert (=> bs!1832 m!16597))

(declare-fun m!16599 () Bool)

(assert (=> bs!1832 m!16599))

(declare-fun m!16601 () Bool)

(assert (=> bs!1832 m!16601))

(declare-fun m!16603 () Bool)

(assert (=> bs!1832 m!16603))

(declare-fun m!16605 () Bool)

(assert (=> bs!1832 m!16605))

(declare-fun m!16607 () Bool)

(assert (=> bs!1832 m!16607))

(declare-fun m!16609 () Bool)

(assert (=> bs!1832 m!16609))

(declare-fun m!16611 () Bool)

(assert (=> bs!1832 m!16611))

(declare-fun m!16613 () Bool)

(assert (=> bs!1832 m!16613))

(declare-fun m!16615 () Bool)

(assert (=> bs!1832 m!16615))

(assert (=> b!12006 d!4437))

(declare-fun d!4439 () Bool)

(assert (=> d!4439 (= (QInt!0 (select (arr!401 iq!194) (bvsub (bvsub jz!59 #b00000000000000000000000000000001) i!271))) (and (bvsle #b00000000000000000000000000000000 (select (arr!401 iq!194) (bvsub (bvsub jz!59 #b00000000000000000000000000000001) i!271))) (bvsle (select (arr!401 iq!194) (bvsub (bvsub jz!59 #b00000000000000000000000000000001) i!271)) #b00000000111111111111111111111111)))))

(assert (=> b!12000 d!4439))

(check-sat (not b!12014) (not b!12030) (not b!12056) (not b!12060) (not b!12035) (not b!12058) (not b!12027) (not b!12063) (not b!12029))
(check-sat)
